p cnf 7230 17
-3714 -5771 5936 0
5581 5591 5785 -5939 0
5575 5589 5791 -5937 0
-5581 -5940 0
-5575 -5938 0
-5591 -5940 0
-5589 -5938 0
5941 5942 0
5789 -5942 0
-5789 -5941 0
5939 5940 0
5937 5938 0
-5785 -5940 0
-5791 -5938 0
5793 -5944 0
-5935 -5936 0
5935 5936 0
